single conv nosym qok
cell
 25.02800 25.02800 25.02800 90.00000 90.00000 90.00000
fractional
Si    0.94709   0.12457   0.03509
Al    0.94648   0.03671   0.12309
O2    0.89010   0.00020   0.10540
O2    0.99750   0.99590   0.14450
O2    0.96790   0.07300   0.06800
O2    0.92940   0.07720   0.17610
Si    0.30291   0.12543   0.03509
Al    0.30352   0.21329   0.12309
O2    0.35990   0.24980   0.10540
O2    0.25250   0.25410   0.14450
O2    0.28210   0.17700   0.06800
O2    0.32060   0.17280   0.17610
Si    0.30291   0.12457   0.21491
Al    0.30352   0.03671   0.12691
O2    0.35990   0.00020   0.14460
O2    0.25250   0.99590   0.10550
O2    0.28210   0.07300   0.18200
O2    0.32060   0.07720   0.07390
Si    0.94709   0.12543   0.21491
Al    0.94648   0.21329   0.12691
O2    0.89010   0.24980   0.14460
O2    0.99750   0.25410   0.10550
O2    0.96790   0.17700   0.18200
O2    0.92940   0.17280   0.07390
Si    0.03509   0.94709   0.12457
Si    0.12309   0.94648   0.03671
O2    0.10540   0.89010   0.00020
O2    0.14450   0.99750   0.99590
O2    0.06800   0.96790   0.07300
O2    0.17610   0.92940   0.07720
Si    0.03509   0.30291   0.12543
Al    0.12309   0.30352   0.21329
O2    0.10540   0.35990   0.24980
O2    0.14450   0.25250   0.25410
O2    0.06800   0.28210   0.17700
O2    0.17610   0.32060   0.17280
Si    0.21491   0.30291   0.12457
Al    0.12691   0.30352   0.03671
O2    0.14460   0.35990   0.00020
O2    0.10550   0.25250   0.99590
O2    0.18200   0.28210   0.07300
O2    0.07390   0.32060   0.07720
Si    0.21491   0.94709   0.12543
Al    0.12691   0.94648   0.21329
O2    0.14460   0.89010   0.24980
O2    0.10550   0.99750   0.25410
O2    0.18200   0.96790   0.17700
O2    0.07390   0.92940   0.17280
Al    0.12457   0.03509   0.94709
Si    0.03671   0.12309   0.94648
O2    0.00020   0.10540   0.89010
O2    0.99590   0.14450   0.99750
O2    0.07300   0.06800   0.96790
O2    0.07720   0.17610   0.92940
Si    0.12543   0.03509   0.30291
Al    0.21329   0.12309   0.30352
O2    0.24980   0.10540   0.35990
O2    0.25410   0.14450   0.25250
O2    0.17700   0.06800   0.28210
O2    0.17280   0.17610   0.32060
Si    0.12457   0.21491   0.30291
Al    0.03671   0.12691   0.30352
O2    0.00020   0.14460   0.35990
O2    0.99590   0.10550   0.25250
O2    0.07300   0.18200   0.28210
O2    0.07720   0.07390   0.32060
Si    0.12543   0.21491   0.94709
Si    0.21329   0.12691   0.94648
O2    0.24980   0.14460   0.89010
O2    0.25410   0.10550   0.99750
O2    0.17700   0.18200   0.96790
O2    0.17280   0.07390   0.92940
Al    0.05291   0.87543   0.96491
Si    0.05352   0.96329   0.87691
O2    0.10990   0.99980   0.89460
O2    0.00250   0.00410   0.85550
O2    0.03210   0.92700   0.93200
O2    0.07060   0.92280   0.82390
Si    0.69709   0.87457   0.96491
Al    0.69648   0.78671   0.87691
O2    0.64010   0.75020   0.89460
O2    0.74750   0.74590   0.85550
O2    0.71790   0.82300   0.93200
O2    0.67940   0.82720   0.82390
Si    0.69709   0.87543   0.78509
Al    0.69648   0.96329   0.87309
O2    0.64010   0.99980   0.85540
O2    0.74750   0.00410   0.89450
O2    0.71790   0.92700   0.81800
O2    0.67940   0.92280   0.92610
Al    0.05291   0.87457   0.78509
Si    0.05352   0.78671   0.87309
O2    0.10990   0.75020   0.85540
O2    0.00250   0.74590   0.89450
O2    0.03210   0.82300   0.81800
O2    0.07060   0.82720   0.92610
Al    0.96491   0.05291   0.87543
Si    0.87691   0.05352   0.96329
O2    0.89460   0.10990   0.99980
O2    0.85550   0.00250   0.00410
O2    0.93200   0.03210   0.92700
O2    0.82390   0.07060   0.92280
Al    0.96491   0.69709   0.87457
Si    0.87691   0.69648   0.78671
O2    0.89460   0.64010   0.75020
O2    0.85550   0.74750   0.74590
O2    0.93200   0.71790   0.82300
O2    0.82390   0.67940   0.82720
Si    0.78509   0.69709   0.87543
Si    0.87309   0.69648   0.96329
O2    0.85540   0.64010   0.99980
O2    0.89450   0.74750   0.00410
O2    0.81800   0.71790   0.92700
O2    0.92610   0.67940   0.92280
Si    0.78509   0.05291   0.87457
Si    0.87309   0.05352   0.78671
O2    0.85540   0.10990   0.75020
O2    0.89450   0.00250   0.74590
O2    0.81800   0.03210   0.82300
O2    0.92610   0.07060   0.82720
Si    0.87543   0.96491   0.05291
Si    0.96329   0.87691   0.05352
O2    0.99980   0.89460   0.10990
O2    0.00410   0.85550   0.00250
O2    0.92700   0.93200   0.03210
O2    0.92280   0.82390   0.07060
Al    0.87457   0.96491   0.69709
Si    0.78671   0.87691   0.69648
O2    0.75020   0.89460   0.64010
O2    0.74590   0.85550   0.74750
O2    0.82300   0.93200   0.71790
O2    0.82720   0.82390   0.67940
Al    0.87543   0.78509   0.69709
Si    0.96329   0.87309   0.69648
O2    0.99980   0.85540   0.64010
O2    0.00410   0.89450   0.74750
O2    0.92700   0.81800   0.71790
O2    0.92280   0.92610   0.67940
Si    0.87457   0.78509   0.05291
Al    0.78671   0.87309   0.05352
O2    0.75020   0.85540   0.10990
O2    0.74590   0.89450   0.00250
O2    0.82300   0.81800   0.03210
O2    0.82720   0.92610   0.07060
Si    0.94709   0.62457   0.53509
Si    0.94648   0.53671   0.62309
O2    0.89010   0.50020   0.60540
O2    0.99750   0.49590   0.64450
O2    0.96790   0.57300   0.56800
O2    0.92940   0.57720   0.67610
Si    0.30291   0.62543   0.53509
Al    0.30352   0.71329   0.62309
O2    0.35990   0.74980   0.60540
O2    0.25250   0.75410   0.64450
O2    0.28210   0.67700   0.56800
O2    0.32060   0.67280   0.67610
Si    0.30291   0.62457   0.71491
Al    0.30352   0.53671   0.62691
O2    0.35990   0.50020   0.64460
O2    0.25250   0.49590   0.60550
O2    0.28210   0.57300   0.68200
O2    0.32060   0.57720   0.57390
Al    0.94709   0.62543   0.71491
Si    0.94648   0.71329   0.62691
O2    0.89010   0.74980   0.64460
O2    0.99750   0.75410   0.60550
O2    0.96790   0.67700   0.68200
O2    0.92940   0.67280   0.57390
Si    0.03509   0.44709   0.62457
Al    0.12309   0.44648   0.53671
O2    0.10540   0.39010   0.50020
O2    0.14450   0.49750   0.49590
O2    0.06800   0.46790   0.57300
O2    0.17610   0.42940   0.57720
Si    0.03509   0.80291   0.62543
Si    0.12309   0.80352   0.71329
O2    0.10540   0.85990   0.74980
O2    0.14450   0.75250   0.75410
O2    0.06800   0.78210   0.67700
O2    0.17610   0.82060   0.67280
Si    0.21491   0.80291   0.62457
Al    0.12691   0.80352   0.53671
O2    0.14460   0.85990   0.50020
O2    0.10550   0.75250   0.49590
O2    0.18200   0.78210   0.57300
O2    0.07390   0.82060   0.57720
Si    0.21491   0.44709   0.62543
Al    0.12691   0.44648   0.71329
O2    0.14460   0.39010   0.74980
O2    0.10550   0.49750   0.75410
O2    0.18200   0.46790   0.67700
O2    0.07390   0.42940   0.67280
Si    0.12457   0.53509   0.44709
Al    0.03671   0.62309   0.44648
O2    0.00020   0.60540   0.39010
O2    0.99590   0.64450   0.49750
O2    0.07300   0.56800   0.46790
O2    0.07720   0.67610   0.42940
Si    0.12543   0.53509   0.80291
Al    0.21329   0.62309   0.80352
O2    0.24980   0.60540   0.85990
O2    0.25410   0.64450   0.75250
O2    0.17700   0.56800   0.78210
O2    0.17280   0.67610   0.82060
Si    0.12457   0.71491   0.80291
Si    0.03671   0.62691   0.80352
O2    0.00020   0.64460   0.85990
O2    0.99590   0.60550   0.75250
O2    0.07300   0.68200   0.78210
O2    0.07720   0.57390   0.82060
Si    0.12543   0.71491   0.44709
Al    0.21329   0.62691   0.44648
O2    0.24980   0.64460   0.39010
O2    0.25410   0.60550   0.49750
O2    0.17700   0.68200   0.46790
O2    0.17280   0.57390   0.42940
Si    0.05291   0.37543   0.46491
Al    0.05352   0.46329   0.37691
O2    0.10990   0.49980   0.39460
O2    0.00250   0.50410   0.35550
O2    0.03210   0.42700   0.43200
O2    0.07060   0.42280   0.32390
Si    0.69709   0.37457   0.46491
Al    0.69648   0.28671   0.37691
O2    0.64010   0.25020   0.39460
O2    0.74750   0.24590   0.35550
O2    0.71790   0.32300   0.43200
O2    0.67940   0.32720   0.32390
Si    0.69709   0.37543   0.28509
Al    0.69648   0.46329   0.37309
O2    0.64010   0.49980   0.35540
O2    0.74750   0.50410   0.39450
O2    0.71790   0.42700   0.31800
O2    0.67940   0.42280   0.42610
Si    0.05291   0.37457   0.28509
Al    0.05352   0.28671   0.37309
O2    0.10990   0.25020   0.35540
O2    0.00250   0.24590   0.39450
O2    0.03210   0.32300   0.31800
O2    0.07060   0.32720   0.42610
Si    0.96491   0.55291   0.37543
Al    0.87691   0.55352   0.46329
O2    0.89460   0.60990   0.49980
O2    0.85550   0.50250   0.50410
O2    0.93200   0.53210   0.42700
O2    0.82390   0.57060   0.42280
Si    0.96491   0.19709   0.37457
Al    0.87691   0.19648   0.28671
O2    0.89460   0.14010   0.25020
O2    0.85550   0.24750   0.24590
O2    0.93200   0.21790   0.32300
O2    0.82390   0.17940   0.32720
Si    0.78509   0.19709   0.37543
Al    0.87309   0.19648   0.46329
O2    0.85540   0.14010   0.49980
O2    0.89450   0.24750   0.50410
O2    0.81800   0.21790   0.42700
O2    0.92610   0.17940   0.42280
Si    0.78509   0.55291   0.37457
Al    0.87309   0.55352   0.28671
O2    0.85540   0.60990   0.25020
O2    0.89450   0.50250   0.24590
O2    0.81800   0.53210   0.32300
O2    0.92610   0.57060   0.32720
Si    0.87543   0.46491   0.55291
Al    0.96329   0.37691   0.55352
O2    0.99980   0.39460   0.60990
O2    0.00410   0.35550   0.50250
O2    0.92700   0.43200   0.53210
O2    0.92280   0.32390   0.57060
Si    0.87457   0.46491   0.19709
Al    0.78671   0.37691   0.19648
O2    0.75020   0.39460   0.14010
O2    0.74590   0.35550   0.24750
O2    0.82300   0.43200   0.21790
O2    0.82720   0.32390   0.17940
Si    0.87543   0.28509   0.19709
Al    0.96329   0.37309   0.19648
O2    0.99980   0.35540   0.14010
O2    0.00410   0.39450   0.24750
O2    0.92700   0.31800   0.21790
O2    0.92280   0.42610   0.17940
Si    0.87457   0.28509   0.55291
Al    0.78671   0.37309   0.55352
O2    0.75020   0.35540   0.60990
O2    0.74590   0.39450   0.50250
O2    0.82300   0.31800   0.53210
O2    0.82720   0.42610   0.57060
Si    0.44709   0.12457   0.53509
Al    0.44648   0.03671   0.62309
O2    0.39010   0.00020   0.60540
O2    0.49750   0.99590   0.64450
O2    0.46790   0.07300   0.56800
O2    0.42940   0.07720   0.67610
Si    0.80291   0.12543   0.53509
Al    0.80352   0.21329   0.62309
O2    0.85990   0.24980   0.60540
O2    0.75250   0.25410   0.64450
O2    0.78210   0.17700   0.56800
O2    0.82060   0.17280   0.67610
Si    0.80291   0.12457   0.71491
Si    0.80352   0.03671   0.62691
O2    0.85990   0.00020   0.64460
O2    0.75250   0.99590   0.60550
O2    0.78210   0.07300   0.68200
O2    0.82060   0.07720   0.57390
Si    0.44709   0.12543   0.71491
Al    0.44648   0.21329   0.62691
O2    0.39010   0.24980   0.64460
O2    0.49750   0.25410   0.60550
O2    0.46790   0.17700   0.68200
O2    0.42940   0.17280   0.57390
Si    0.53509   0.94709   0.62457
Al    0.62309   0.94648   0.53671
O2    0.60540   0.89010   0.50020
O2    0.64450   0.99750   0.49590
O2    0.56800   0.96790   0.57300
O2    0.67610   0.92940   0.57720
Si    0.53509   0.30291   0.62543
Al    0.62309   0.30352   0.71329
O2    0.60540   0.35990   0.74980
O2    0.64450   0.25250   0.75410
O2    0.56800   0.28210   0.67700
O2    0.67610   0.32060   0.67280
Si    0.71491   0.30291   0.62457
Al    0.62691   0.30352   0.53671
O2    0.64460   0.35990   0.50020
O2    0.60550   0.25250   0.49590
O2    0.68200   0.28210   0.57300
O2    0.57390   0.32060   0.57720
Si    0.71491   0.94709   0.62543
Al    0.62691   0.94648   0.71329
O2    0.64460   0.89010   0.74980
O2    0.60550   0.99750   0.75410
O2    0.68200   0.96790   0.67700
O2    0.57390   0.92940   0.67280
Si    0.62457   0.03509   0.44709
Al    0.53671   0.12309   0.44648
O2    0.50020   0.10540   0.39010
O2    0.49590   0.14450   0.49750
O2    0.57300   0.06800   0.46790
O2    0.57720   0.17610   0.42940
Si    0.62543   0.03509   0.80291
Al    0.71329   0.12309   0.80352
O2    0.74980   0.10540   0.85990
O2    0.75410   0.14450   0.75250
O2    0.67700   0.06800   0.78210
O2    0.67280   0.17610   0.82060
Si    0.62457   0.21491   0.80291
Al    0.53671   0.12691   0.80352
O2    0.50020   0.14460   0.85990
O2    0.49590   0.10550   0.75250
O2    0.57300   0.18200   0.78210
O2    0.57720   0.07390   0.82060
Si    0.62543   0.21491   0.44709
Al    0.71329   0.12691   0.44648
O2    0.74980   0.14460   0.39010
O2    0.75410   0.10550   0.49750
O2    0.67700   0.18200   0.46790
O2    0.67280   0.07390   0.42940
Si    0.55291   0.87543   0.46491
Al    0.55352   0.96329   0.37691
O2    0.60990   0.99980   0.39460
O2    0.50250   0.00410   0.35550
O2    0.53210   0.92700   0.43200
O2    0.57060   0.92280   0.32390
Si    0.19709   0.87457   0.46491
Al    0.19648   0.78671   0.37691
O2    0.14010   0.75020   0.39460
O2    0.24750   0.74590   0.35550
O2    0.21790   0.82300   0.43200
O2    0.17940   0.82720   0.32390
Si    0.19709   0.87543   0.28509
Al    0.19648   0.96329   0.37309
O2    0.14010   0.99980   0.35540
O2    0.24750   0.00410   0.39450
O2    0.21790   0.92700   0.31800
O2    0.17940   0.92280   0.42610
Si    0.55291   0.87457   0.28509
Al    0.55352   0.78671   0.37309
O2    0.60990   0.75020   0.35540
O2    0.50250   0.74590   0.39450
O2    0.53210   0.82300   0.31800
O2    0.57060   0.82720   0.42610
Si    0.46491   0.05291   0.37543
Al    0.37691   0.05352   0.46329
O2    0.39460   0.10990   0.49980
O2    0.35550   0.00250   0.50410
O2    0.43200   0.03210   0.42700
O2    0.32390   0.07060   0.42280
Si    0.46491   0.69709   0.37457
Al    0.37691   0.69648   0.28671
O2    0.39460   0.64010   0.25020
O2    0.35550   0.74750   0.24590
O2    0.43200   0.71790   0.32300
O2    0.32390   0.67940   0.32720
Si    0.28509   0.69709   0.37543
Al    0.37309   0.69648   0.46329
O2    0.35540   0.64010   0.49980
O2    0.39450   0.74750   0.50410
O2    0.31800   0.71790   0.42700
O2    0.42610   0.67940   0.42280
Si    0.28509   0.05291   0.37457
Al    0.37309   0.05352   0.28671
O2    0.35540   0.10990   0.25020
O2    0.39450   0.00250   0.24590
O2    0.31800   0.03210   0.32300
O2    0.42610   0.07060   0.32720
Si    0.37543   0.96491   0.55291
Al    0.46329   0.87691   0.55352
O2    0.49980   0.89460   0.60990
O2    0.50410   0.85550   0.50250
O2    0.42700   0.93200   0.53210
O2    0.42280   0.82390   0.57060
Si    0.37457   0.96491   0.19709
Al    0.28671   0.87691   0.19648
O2    0.25020   0.89460   0.14010
O2    0.24590   0.85550   0.24750
O2    0.32300   0.93200   0.21790
O2    0.32720   0.82390   0.17940
Si    0.37543   0.78509   0.19709
Al    0.46329   0.87309   0.19648
O2    0.49980   0.85540   0.14010
O2    0.50410   0.89450   0.24750
O2    0.42700   0.81800   0.21790
O2    0.42280   0.92610   0.17940
Si    0.37457   0.78509   0.55291
Al    0.28671   0.87309   0.55352
O2    0.25020   0.85540   0.60990
O2    0.24590   0.89450   0.50250
O2    0.32300   0.81800   0.53210
O2    0.32720   0.92610   0.57060
Si    0.44709   0.62457   0.03509
Al    0.44648   0.53671   0.12309
O2    0.39010   0.50020   0.10540
O2    0.49750   0.49590   0.14450
O2    0.46790   0.57300   0.06800
O2    0.42940   0.57720   0.17610
Si    0.80291   0.62543   0.03509
Al    0.80352   0.71329   0.12309
O2    0.85990   0.74980   0.10540
O2    0.75250   0.75410   0.14450
O2    0.78210   0.67700   0.06800
O2    0.82060   0.67280   0.17610
Si    0.80291   0.62457   0.21491
Al    0.80352   0.53671   0.12691
O2    0.85990   0.50020   0.14460
O2    0.75250   0.49590   0.10550
O2    0.78210   0.57300   0.18200
O2    0.82060   0.57720   0.07390
Si    0.44709   0.62543   0.21491
Al    0.44648   0.71329   0.12691
O2    0.39010   0.74980   0.14460
O2    0.49750   0.75410   0.10550
O2    0.46790   0.67700   0.18200
O2    0.42940   0.67280   0.07390
Si    0.53509   0.44709   0.12457
Al    0.62309   0.44648   0.03671
O2    0.60540   0.39010   0.00020
O2    0.64450   0.49750   0.99590
O2    0.56800   0.46790   0.07300
O2    0.67610   0.42940   0.07720
Si    0.53509   0.80291   0.12543
Al    0.62309   0.80352   0.21329
O2    0.60540   0.85990   0.24980
O2    0.64450   0.75250   0.25410
O2    0.56800   0.78210   0.17700
O2    0.67610   0.82060   0.17280
Si    0.71491   0.80291   0.12457
Al    0.62691   0.80352   0.03671
O2    0.64460   0.85990   0.00020
O2    0.60550   0.75250   0.99590
O2    0.68200   0.78210   0.07300
O2    0.57390   0.82060   0.07720
Si    0.71491   0.44709   0.12543
Al    0.62691   0.44648   0.21329
O2    0.64460   0.39010   0.24980
O2    0.60550   0.49750   0.25410
O2    0.68200   0.46790   0.17700
O2    0.57390   0.42940   0.17280
Si    0.62457   0.53509   0.94709
Al    0.53671   0.62309   0.94648
O2    0.50020   0.60540   0.89010
O2    0.49590   0.64450   0.99750
O2    0.57300   0.56800   0.96790
O2    0.57720   0.67610   0.92940
Si    0.62543   0.53509   0.30291
Al    0.71329   0.62309   0.30352
O2    0.74980   0.60540   0.35990
O2    0.75410   0.64450   0.25250
O2    0.67700   0.56800   0.28210
O2    0.67280   0.67610   0.32060
Si    0.62457   0.71491   0.30291
Si    0.53671   0.62691   0.30352
O2    0.50020   0.64460   0.35990
O2    0.49590   0.60550   0.25250
O2    0.57300   0.68200   0.28210
O2    0.57720   0.57390   0.32060
Si    0.62543   0.71491   0.94709
Al    0.71329   0.62691   0.94648
O2    0.74980   0.64460   0.89010
O2    0.75410   0.60550   0.99750
O2    0.67700   0.68200   0.96790
O2    0.67280   0.57390   0.92940
Si    0.55291   0.37543   0.96491
Al    0.55352   0.46329   0.87691
O2    0.60990   0.49980   0.89460
O2    0.50250   0.50410   0.85550
O2    0.53210   0.42700   0.93200
O2    0.57060   0.42280   0.82390
Si    0.19709   0.37457   0.96491
Al    0.19648   0.28671   0.87691
O2    0.14010   0.25020   0.89460
O2    0.24750   0.24590   0.85550
O2    0.21790   0.32300   0.93200
O2    0.17940   0.32720   0.82390
Si    0.19709   0.37543   0.78509
Al    0.19648   0.46329   0.87309
O2    0.14010   0.49980   0.85540
O2    0.24750   0.50410   0.89450
O2    0.21790   0.42700   0.81800
O2    0.17940   0.42280   0.92610
Si    0.55291   0.37457   0.78509
Al    0.55352   0.28671   0.87309
O2    0.60990   0.25020   0.85540
O2    0.50250   0.24590   0.89450
O2    0.53210   0.32300   0.81800
O2    0.57060   0.32720   0.92610
Si    0.46491   0.55291   0.87543
Al    0.37691   0.55352   0.96329
O2    0.39460   0.60990   0.99980
O2    0.35550   0.50250   0.00410
O2    0.43200   0.53210   0.92700
O2    0.32390   0.57060   0.92280
Si    0.46491   0.19709   0.87457
Al    0.37691   0.19648   0.78671
O2    0.39460   0.14010   0.75020
O2    0.35550   0.24750   0.74590
O2    0.43200   0.21790   0.82300
O2    0.32390   0.17940   0.82720
Si    0.28509   0.19709   0.87543
Al    0.37309   0.19648   0.96329
O2    0.35540   0.14010   0.99980
O2    0.39450   0.24750   0.00410
O2    0.31800   0.21790   0.92700
O2    0.42610   0.17940   0.92280
Si    0.28509   0.55291   0.87457
Al    0.37309   0.55352   0.78671
O2    0.35540   0.60990   0.75020
O2    0.39450   0.50250   0.74590
O2    0.31800   0.53210   0.82300
O2    0.42610   0.57060   0.82720
Si    0.37543   0.46491   0.05291
Al    0.46329   0.37691   0.05352
O2    0.49980   0.39460   0.10990
O2    0.50410   0.35550   0.00250
O2    0.42700   0.43200   0.03210
O2    0.42280   0.32390   0.07060
Si    0.37457   0.46491   0.69709
Al    0.28671   0.37691   0.69648
O2    0.25020   0.39460   0.64010
O2    0.24590   0.35550   0.74750
O2    0.32300   0.43200   0.71790
O2    0.32720   0.32390   0.67940
Si    0.37543   0.28509   0.69709
Al    0.46329   0.37309   0.69648
O2    0.49980   0.35540   0.64010
O2    0.50410   0.39450   0.74750
O2    0.42700   0.31800   0.71790
O2    0.42280   0.42610   0.67940
Si    0.37457   0.28509   0.05291
Al    0.28671   0.37309   0.05352
O2    0.25020   0.35540   0.10990
O2    0.24590   0.39450   0.00250
O2    0.32300   0.31800   0.03210
O2    0.32720   0.42610   0.07060
species 6
Na     core    1.000000
Sr     core    2.000000
Al     core    3.000000
Si     core    4.000000
O2     core    0.869020
O2     shel   -2.869020
buck Na core O2 shel  1226.84000  0.306500  0.000000 0.00 10.00
buck Na core Na core  7895.40000  0.170900  0.000000 0.00 10.00
buck Sr core O2 shel  1952.39000  0.336850 19.22000  0.00 10.00
buck Al core O2 shel  1460.30000  0.299120  0.000000 0.00 10.00
buck Si core O2 shel  1283.90700  0.320520 10.66158  0.00 10.00
buck O2 shel O2 shel 22764.0000   0.149000 27.87900  0.00 12.00
spring
O2 74.920000
three regular Si core O2 shel O2 shel 2.0972 109.47000 &
  0.000  1.800  0.000  1.800  0.000  3.200
three regular Al core O2 shel O2 shel 2.0972 109.47000 &
  0.000  1.800  0.000  1.800  0.000  3.200
cutp     16.00000    1.00000
switch_min rfo   gnorm     0.001000
dump every 1     out.res
output cif out.cif
